
Gurobi 8.1.0 (win64, Python) logging started 02/12/21 14:00:32


--------------------------------------------
Warning: your license will expire in 11 days
--------------------------------------------

Academic license - for non-commercial use only

Gurobi 8.1.0 (win64, Python) logging started 02/13/21 16:57:17


--------------------------------------------
Warning: your license will expire in 10 days
--------------------------------------------

Academic license - for non-commercial use only

Gurobi 8.1.0 (win64, Python) logging started 10/28/21 11:15:03

Academic license - for non-commercial use only
